Maximize
 0
Subject To
 epc_0!1: -36.87804730844808 y_1!1_2!1 +65.7210104928694 y_1!2_2!1 -62.653981772132994 y_1!3_2!1 +93.95304944419397 y_1!4_2!1 +21.92980690468322 y_1!1_2!2 +41.67684954769027 y_1!2_2!2 -80.99682369167975 y_1!3_2!2 +92.88478673278789 y_1!4_2!2 +54.73630484827311 y_1!1_2!3 -75.30253978609558 y_1!2_2!3 +24.537584349403033 y_1!3_2!3 +44.63309157799472 y_1!4_2!3 +44.07422003536291 y_1!1_2!4 +8.30905890052243 y_1!2_2!4 +17.83436952203988 y_1!3_2!4 +54.29429059280477 y_1!4_2!4 + lambda_0!1 - mu_0 = 0
 epc_0!2: -96.93517684691993 y_1!1_2!1 +25.271200966420636 y_1!2_2!1 -56.53659482558226 y_1!3_2!1 +44.57903585752558 y_1!4_2!1 -48.17764037670737 y_1!1_2!2 -13.336371862387168 y_1!2_2!2 +59.02844398421462 y_1!3_2!2 +43.337054677600236 y_1!4_2!2 +31.842587936903243 y_1!1_2!3 +84.25627256188565 y_1!2_2!3 +13.936676061965272 y_1!3_2!3 -34.04078728342479 y_1!4_2!3 +51.17107668688453 y_1!1_2!4 -97.12407277883442 y_1!2_2!4 -80.91835907665026 y_1!3_2!4 -56.716398846030124 y_1!4_2!4 + lambda_0!2 - mu_0 = 0
 epc_0!3: +14.119967355286505 y_1!1_2!1 +23.48474093751996 y_1!2_2!1 -43.34207233187877 y_1!3_2!1 -62.897702026539484 y_1!4_2!1 +77.0534708565149 y_1!1_2!2 +69.04959976101057 y_1!2_2!2 -60.10360294324695 y_1!3_2!2 +0.9481628002688183 y_1!4_2!2 +92.06187633395223 y_1!1_2!3 +23.808214492483756 y_1!2_2!3 +73.49974024210448 y_1!3_2!3 +85.32310421655777 y_1!4_2!3 -36.66125700055869 y_1!1_2!4 -71.66196349967302 y_1!2_2!4 +35.52447060220379 y_1!3_2!4 -80.28808474917541 y_1!4_2!4 + lambda_0!3 - mu_0 = 0
 epc_0!4: -43.398329644644804 y_1!1_2!1 +30.44632449711807 y_1!2_2!1 +82.55786630333088 y_1!3_2!1 +17.459566871949676 y_1!4_2!1 -13.80570229734542 y_1!1_2!2 +41.942330625834614 y_1!2_2!2 -59.7676240254831 y_1!3_2!2 -15.918425256627785 y_1!4_2!2 -29.93587138442129 y_1!1_2!3 +40.72250774678392 y_1!2_2!3 -8.101022002155744 y_1!3_2!3 -79.52050346077937 y_1!4_2!3 +28.70593141927006 y_1!1_2!4 -74.37329543410753 y_1!2_2!4 +84.41993644472129 y_1!3_2!4 +26.237350795845188 y_1!4_2!4 + lambda_0!4 - mu_0 = 0
 dc_0: x_0!1 + x_0!2 + x_0!3 + x_0!4 = 1
 bc_0!1: lambda_0!1 +298.6440089894168 x_0!1 <= 298.6440089894168
 bc_0!2: lambda_0!2 +298.6440089894168 x_0!2 <= 298.6440089894168
 bc_0!3: lambda_0!3 +298.6440089894168 x_0!3 <= 298.6440089894168
 bc_0!4: lambda_0!4 +298.6440089894168 x_0!4 <= 298.6440089894168
 sum_0!1: y_1!1_2!1 - x_1!1 - x_2!1 >= -1
 idk_0!1!1: y_1!1_2!1 - x_1!1 <= 0
 idk_0!1!2: y_1!1_2!1 - x_2!1 <= 0
 sum_0!2: y_1!2_2!1 - x_1!2 - x_2!1 >= -1
 idk_0!2!1: y_1!2_2!1 - x_1!2 <= 0
 idk_0!2!2: y_1!2_2!1 - x_2!1 <= 0
 sum_0!3: y_1!3_2!1 - x_1!3 - x_2!1 >= -1
 idk_0!3!1: y_1!3_2!1 - x_1!3 <= 0
 idk_0!3!2: y_1!3_2!1 - x_2!1 <= 0
 sum_0!4: y_1!4_2!1 - x_1!4 - x_2!1 >= -1
 idk_0!4!1: y_1!4_2!1 - x_1!4 <= 0
 idk_0!4!2: y_1!4_2!1 - x_2!1 <= 0
 sum_0!5: y_1!1_2!2 - x_1!1 - x_2!2 >= -1
 idk_0!5!1: y_1!1_2!2 - x_1!1 <= 0
 idk_0!5!2: y_1!1_2!2 - x_2!2 <= 0
 sum_0!6: y_1!2_2!2 - x_1!2 - x_2!2 >= -1
 idk_0!6!1: y_1!2_2!2 - x_1!2 <= 0
 idk_0!6!2: y_1!2_2!2 - x_2!2 <= 0
 sum_0!7: y_1!3_2!2 - x_1!3 - x_2!2 >= -1
 idk_0!7!1: y_1!3_2!2 - x_1!3 <= 0
 idk_0!7!2: y_1!3_2!2 - x_2!2 <= 0
 sum_0!8: y_1!4_2!2 - x_1!4 - x_2!2 >= -1
 idk_0!8!1: y_1!4_2!2 - x_1!4 <= 0
 idk_0!8!2: y_1!4_2!2 - x_2!2 <= 0
 sum_0!9: y_1!1_2!3 - x_1!1 - x_2!3 >= -1
 idk_0!9!1: y_1!1_2!3 - x_1!1 <= 0
 idk_0!9!2: y_1!1_2!3 - x_2!3 <= 0
 sum_0!10: y_1!2_2!3 - x_1!2 - x_2!3 >= -1
 idk_0!10!1: y_1!2_2!3 - x_1!2 <= 0
 idk_0!10!2: y_1!2_2!3 - x_2!3 <= 0
 sum_0!11: y_1!3_2!3 - x_1!3 - x_2!3 >= -1
 idk_0!11!1: y_1!3_2!3 - x_1!3 <= 0
 idk_0!11!2: y_1!3_2!3 - x_2!3 <= 0
 sum_0!12: y_1!4_2!3 - x_1!4 - x_2!3 >= -1
 idk_0!12!1: y_1!4_2!3 - x_1!4 <= 0
 idk_0!12!2: y_1!4_2!3 - x_2!3 <= 0
 sum_0!13: y_1!1_2!4 - x_1!1 - x_2!4 >= -1
 idk_0!13!1: y_1!1_2!4 - x_1!1 <= 0
 idk_0!13!2: y_1!1_2!4 - x_2!4 <= 0
 sum_0!14: y_1!2_2!4 - x_1!2 - x_2!4 >= -1
 idk_0!14!1: y_1!2_2!4 - x_1!2 <= 0
 idk_0!14!2: y_1!2_2!4 - x_2!4 <= 0
 sum_0!15: y_1!3_2!4 - x_1!3 - x_2!4 >= -1
 idk_0!15!1: y_1!3_2!4 - x_1!3 <= 0
 idk_0!15!2: y_1!3_2!4 - x_2!4 <= 0
 sum_0!16: y_1!4_2!4 - x_1!4 - x_2!4 >= -1
 idk_0!16!1: y_1!4_2!4 - x_1!4 <= 0
 idk_0!16!2: y_1!4_2!4 - x_2!4 <= 0
 epc_1!1: -26.52234759903986 y_0!1_2!1 +93.69639656383276 y_0!2_2!1 -34.90569543383431 y_0!3_2!1 +8.133225965410773 y_0!4_2!1 +15.486483984408707 y_0!1_2!2 +62.392014850430684 y_0!2_2!2 +30.191157288536857 y_0!3_2!2 -53.10026391535851 y_0!4_2!2 +69.19118249118728 y_0!1_2!3 +46.450875017177424 y_0!2_2!3 +10.388901441935118 y_0!3_2!3 +23.469174234319112 y_0!4_2!3 -17.906549454956576 y_0!1_2!4 +3.719783461346964 y_0!2_2!4 +66.68623738688274 y_0!3_2!4 -39.69642275697392 y_0!4_2!4 + lambda_1!1 - mu_1 = 0
 epc_1!2: +50.83250945881372 y_0!1_2!1 +73.67336855494108 y_0!2_2!1 +79.76115228470522 y_0!3_2!1 -50.773142249542815 y_0!4_2!1 -86.70052755323432 y_0!1_2!2 -23.819622059832255 y_0!2_2!2 -40.920079838356635 y_0!3_2!2 -91.83097269224685 y_0!4_2!2 -82.51724299064587 y_0!1_2!3 -8.990525957887655 y_0!2_2!3 +5.932936964200337 y_0!3_2!3 +53.84800267591976 y_0!4_2!3 +83.41477290565103 y_0!1_2!4 +73.00440876319746 y_0!2_2!4 +19.356927688013755 y_0!3_2!4 -26.656584994393384 y_0!4_2!4 + lambda_1!2 - mu_1 = 0
 epc_1!3: +30.74434865135069 y_0!1_2!1 +6.99198659183709 y_0!2_2!1 +57.201388100878745 y_0!3_2!1 +80.37339363308496 y_0!4_2!1 +37.843598619730415 y_0!1_2!2 -65.46846533006396 y_0!2_2!2 +85.88994288071646 y_0!3_2!2 +20.14344846161893 y_0!4_2!2 -5.540189920805759 y_0!1_2!3 +32.65850898577244 y_0!2_2!3 -72.47409600251922 y_0!3_2!3 -47.651148486367134 y_0!4_2!3 +2.1156870903469667 y_0!1_2!4 -0.9097109461380342 y_0!2_2!4 +37.89092097767468 y_0!3_2!4 -81.1676733363322 y_0!4_2!4 + lambda_1!3 - mu_1 = 0
 epc_1!4: +9.734898783828811 y_0!1_2!1 -7.829633656751895 y_0!2_2!1 -18.067874533400513 y_0!3_2!1 -12.399156525134629 y_0!4_2!1 +32.17955321480832 y_0!1_2!2 +88.17084575727452 y_0!2_2!2 +49.45231515391308 y_0!3_2!2 +90.92518434599708 y_0!4_2!2 +23.726117735035984 y_0!1_2!3 -70.9247929344488 y_0!2_2!3 +35.68643668400398 y_0!3_2!3 +23.431585487755086 y_0!4_2!3 -11.287109281611478 y_0!1_2!4 -60.208902198618205 y_0!2_2!4 +27.788365062744177 y_0!3_2!4 +5.428487848423828 y_0!4_2!4 + lambda_1!4 - mu_1 = 0
 dc_1: x_1!1 + x_1!2 + x_1!3 + x_1!4 = 1
 bc_1!1: lambda_1!1 +298.6440089894168 x_1!1 <= 298.6440089894168
 bc_1!2: lambda_1!2 +298.6440089894168 x_1!2 <= 298.6440089894168
 bc_1!3: lambda_1!3 +298.6440089894168 x_1!3 <= 298.6440089894168
 bc_1!4: lambda_1!4 +298.6440089894168 x_1!4 <= 298.6440089894168
 sum_1!1: y_0!1_2!1 - x_0!1 - x_2!1 >= -1
 idk_1!1!0: y_0!1_2!1 - x_0!1 <= 0
 idk_1!1!2: y_0!1_2!1 - x_2!1 <= 0
 sum_1!2: y_0!2_2!1 - x_0!2 - x_2!1 >= -1
 idk_1!2!0: y_0!2_2!1 - x_0!2 <= 0
 idk_1!2!2: y_0!2_2!1 - x_2!1 <= 0
 sum_1!3: y_0!3_2!1 - x_0!3 - x_2!1 >= -1
 idk_1!3!0: y_0!3_2!1 - x_0!3 <= 0
 idk_1!3!2: y_0!3_2!1 - x_2!1 <= 0
 sum_1!4: y_0!4_2!1 - x_0!4 - x_2!1 >= -1
 idk_1!4!0: y_0!4_2!1 - x_0!4 <= 0
 idk_1!4!2: y_0!4_2!1 - x_2!1 <= 0
 sum_1!5: y_0!1_2!2 - x_0!1 - x_2!2 >= -1
 idk_1!5!0: y_0!1_2!2 - x_0!1 <= 0
 idk_1!5!2: y_0!1_2!2 - x_2!2 <= 0
 sum_1!6: y_0!2_2!2 - x_0!2 - x_2!2 >= -1
 idk_1!6!0: y_0!2_2!2 - x_0!2 <= 0
 idk_1!6!2: y_0!2_2!2 - x_2!2 <= 0
 sum_1!7: y_0!3_2!2 - x_0!3 - x_2!2 >= -1
 idk_1!7!0: y_0!3_2!2 - x_0!3 <= 0
 idk_1!7!2: y_0!3_2!2 - x_2!2 <= 0
 sum_1!8: y_0!4_2!2 - x_0!4 - x_2!2 >= -1
 idk_1!8!0: y_0!4_2!2 - x_0!4 <= 0
 idk_1!8!2: y_0!4_2!2 - x_2!2 <= 0
 sum_1!9: y_0!1_2!3 - x_0!1 - x_2!3 >= -1
 idk_1!9!0: y_0!1_2!3 - x_0!1 <= 0
 idk_1!9!2: y_0!1_2!3 - x_2!3 <= 0
 sum_1!10: y_0!2_2!3 - x_0!2 - x_2!3 >= -1
 idk_1!10!0: y_0!2_2!3 - x_0!2 <= 0
 idk_1!10!2: y_0!2_2!3 - x_2!3 <= 0
 sum_1!11: y_0!3_2!3 - x_0!3 - x_2!3 >= -1
 idk_1!11!0: y_0!3_2!3 - x_0!3 <= 0
 idk_1!11!2: y_0!3_2!3 - x_2!3 <= 0
 sum_1!12: y_0!4_2!3 - x_0!4 - x_2!3 >= -1
 idk_1!12!0: y_0!4_2!3 - x_0!4 <= 0
 idk_1!12!2: y_0!4_2!3 - x_2!3 <= 0
 sum_1!13: y_0!1_2!4 - x_0!1 - x_2!4 >= -1
 idk_1!13!0: y_0!1_2!4 - x_0!1 <= 0
 idk_1!13!2: y_0!1_2!4 - x_2!4 <= 0
 sum_1!14: y_0!2_2!4 - x_0!2 - x_2!4 >= -1
 idk_1!14!0: y_0!2_2!4 - x_0!2 <= 0
 idk_1!14!2: y_0!2_2!4 - x_2!4 <= 0
 sum_1!15: y_0!3_2!4 - x_0!3 - x_2!4 >= -1
 idk_1!15!0: y_0!3_2!4 - x_0!3 <= 0
 idk_1!15!2: y_0!3_2!4 - x_2!4 <= 0
 sum_1!16: y_0!4_2!4 - x_0!4 - x_2!4 >= -1
 idk_1!16!0: y_0!4_2!4 - x_0!4 <= 0
 idk_1!16!2: y_0!4_2!4 - x_2!4 <= 0
 epc_2!1: +58.05339123683822 y_0!1_1!1 +91.54570720862853 y_0!2_1!1 +97.95062487617122 y_0!3_1!1 +99.10313340994009 y_0!4_1!1 -46.68663510255102 y_0!1_1!2 -31.008537707895385 y_0!2_1!2 -92.24881004336632 y_0!3_1!2 -55.492990638039366 y_0!4_1!2 -74.12989697874659 y_0!1_1!3 +95.02900732205191 y_0!2_1!3 -78.26195428479272 y_0!3_1!3 +35.27590374405466 y_0!4_1!3 -60.045079690744885 y_0!1_1!4 -91.5153754547739 y_0!2_1!4 -13.319757160970653 y_0!3_1!4 -99.54087557947675 y_0!4_1!4 + lambda_2!1 - mu_2 = 0
 epc_2!2: +43.06803097305598 y_0!1_1!1 -50.17899386044444 y_0!2_1!1 +56.41649667424318 y_0!3_1!1 -81.14729595162689 y_0!4_1!1 +37.498083170757525 y_0!1_1!2 +71.27947272233456 y_0!2_1!2 -79.59204187108983 y_0!3_1!2 -2.708327825216287 y_0!4_1!2 +60.144916263792624 y_0!1_1!3 +58.040028175351836 y_0!2_1!3 +71.1819959470991 y_0!3_1!3 -35.40425869074471 y_0!4_1!3 -62.46595565122863 y_0!1_1!4 -70.31985634538138 y_0!2_1!4 +63.19999354606418 y_0!3_1!4 -49.062287733658174 y_0!4_1!4 + lambda_2!2 - mu_2 = 0
 epc_2!3: +65.13776605965214 y_0!1_1!1 +15.627496774327682 y_0!2_1!1 -55.21637116531011 y_0!3_1!1 +18.692905413173207 y_0!4_1!1 -13.905435230203395 y_0!1_1!2 -83.53433045727317 y_0!2_1!2 +17.58576390708329 y_0!3_1!2 +0.8670899864408881 y_0!4_1!2 +14.144805289192732 y_0!1_1!3 +74.86604694091918 y_0!2_1!3 +94.69357752339005 y_0!3_1!3 +86.9893467975962 y_0!4_1!3 -40.92250662517814 y_0!1_1!4 +85.58317460102799 y_0!2_1!4 -11.19686453314148 y_0!3_1!4 -26.104584929673777 y_0!4_1!4 + lambda_2!3 - mu_2 = 0
 epc_2!4: +70.20927097165841 y_0!1_1!1 +73.3649179402091 y_0!2_1!1 -33.993820580680406 y_0!3_1!1 -29.88390252811506 y_0!4_1!1 -85.60650405334265 y_0!1_1!2 +60.79269878471018 y_0!2_1!2 -51.41850885596335 y_0!3_1!2 -92.37555383347842 y_0!4_1!2 +49.78374419277725 y_0!1_1!3 +34.98141435605942 y_0!2_1!3 -58.21531005980107 y_0!3_1!3 +73.48437526765821 y_0!4_1!3 +45.05269622968271 y_0!1_1!4 +2.7324108349692864 y_0!2_1!4 +94.98194721274248 y_0!3_1!4 +26.48254505487442 y_0!4_1!4 + lambda_2!4 - mu_2 = 0
 dc_2: x_2!1 + x_2!2 + x_2!3 + x_2!4 = 1
 bc_2!1: lambda_2!1 +298.6440089894168 x_2!1 <= 298.6440089894168
 bc_2!2: lambda_2!2 +298.6440089894168 x_2!2 <= 298.6440089894168
 bc_2!3: lambda_2!3 +298.6440089894168 x_2!3 <= 298.6440089894168
 bc_2!4: lambda_2!4 +298.6440089894168 x_2!4 <= 298.6440089894168
 sum_2!1: y_0!1_1!1 - x_0!1 - x_1!1 >= -1
 idk_2!1!0: y_0!1_1!1 - x_0!1 <= 0
 idk_2!1!1: y_0!1_1!1 - x_1!1 <= 0
 sum_2!2: y_0!2_1!1 - x_0!2 - x_1!1 >= -1
 idk_2!2!0: y_0!2_1!1 - x_0!2 <= 0
 idk_2!2!1: y_0!2_1!1 - x_1!1 <= 0
 sum_2!3: y_0!3_1!1 - x_0!3 - x_1!1 >= -1
 idk_2!3!0: y_0!3_1!1 - x_0!3 <= 0
 idk_2!3!1: y_0!3_1!1 - x_1!1 <= 0
 sum_2!4: y_0!4_1!1 - x_0!4 - x_1!1 >= -1
 idk_2!4!0: y_0!4_1!1 - x_0!4 <= 0
 idk_2!4!1: y_0!4_1!1 - x_1!1 <= 0
 sum_2!5: y_0!1_1!2 - x_0!1 - x_1!2 >= -1
 idk_2!5!0: y_0!1_1!2 - x_0!1 <= 0
 idk_2!5!1: y_0!1_1!2 - x_1!2 <= 0
 sum_2!6: y_0!2_1!2 - x_0!2 - x_1!2 >= -1
 idk_2!6!0: y_0!2_1!2 - x_0!2 <= 0
 idk_2!6!1: y_0!2_1!2 - x_1!2 <= 0
 sum_2!7: y_0!3_1!2 - x_0!3 - x_1!2 >= -1
 idk_2!7!0: y_0!3_1!2 - x_0!3 <= 0
 idk_2!7!1: y_0!3_1!2 - x_1!2 <= 0
 sum_2!8: y_0!4_1!2 - x_0!4 - x_1!2 >= -1
 idk_2!8!0: y_0!4_1!2 - x_0!4 <= 0
 idk_2!8!1: y_0!4_1!2 - x_1!2 <= 0
 sum_2!9: y_0!1_1!3 - x_0!1 - x_1!3 >= -1
 idk_2!9!0: y_0!1_1!3 - x_0!1 <= 0
 idk_2!9!1: y_0!1_1!3 - x_1!3 <= 0
 sum_2!10: y_0!2_1!3 - x_0!2 - x_1!3 >= -1
 idk_2!10!0: y_0!2_1!3 - x_0!2 <= 0
 idk_2!10!1: y_0!2_1!3 - x_1!3 <= 0
 sum_2!11: y_0!3_1!3 - x_0!3 - x_1!3 >= -1
 idk_2!11!0: y_0!3_1!3 - x_0!3 <= 0
 idk_2!11!1: y_0!3_1!3 - x_1!3 <= 0
 sum_2!12: y_0!4_1!3 - x_0!4 - x_1!3 >= -1
 idk_2!12!0: y_0!4_1!3 - x_0!4 <= 0
 idk_2!12!1: y_0!4_1!3 - x_1!3 <= 0
 sum_2!13: y_0!1_1!4 - x_0!1 - x_1!4 >= -1
 idk_2!13!0: y_0!1_1!4 - x_0!1 <= 0
 idk_2!13!1: y_0!1_1!4 - x_1!4 <= 0
 sum_2!14: y_0!2_1!4 - x_0!2 - x_1!4 >= -1
 idk_2!14!0: y_0!2_1!4 - x_0!2 <= 0
 idk_2!14!1: y_0!2_1!4 - x_1!4 <= 0
 sum_2!15: y_0!3_1!4 - x_0!3 - x_1!4 >= -1
 idk_2!15!0: y_0!3_1!4 - x_0!3 <= 0
 idk_2!15!1: y_0!3_1!4 - x_1!4 <= 0
 sum_2!16: y_0!4_1!4 - x_0!4 - x_1!4 >= -1
 idk_2!16!0: y_0!4_1!4 - x_0!4 <= 0
 idk_2!16!1: y_0!4_1!4 - x_1!4 <= 0
Bounds
 mu_0 free
 mu_1 free
 mu_2 free
Binary
 x_0!1 x_0!2 x_0!3 x_0!4 x_1!1 x_1!2 x_1!3 x_1!4 x_2!1 x_2!2 x_2!3 x_2!4
End
